(set-logic QF_S)
(declare-fun var0 () String)
(declare-fun var1 () String)
(declare-fun var2 () String)
(declare-fun var3 () String)
(declare-fun var4 () String)
(declare-fun var5 () String)
(declare-fun var6 () String)
(declare-fun var7 () String)
(declare-fun var8 () String)
(declare-fun var9 () String)
(declare-fun var10 () String)
(declare-fun var11 () String)
(declare-fun var12 () String)
(declare-fun var13 () String)
(declare-fun var14 () String)
(declare-fun var15 () String)
(declare-fun var16 () String)
(declare-fun var17 () String)
(declare-fun var18 () String)
(declare-fun var19 () String)
(declare-fun var20 () String)
(declare-fun var21 () String)
(declare-fun var22 () String)
(declare-fun var23 () String)
(declare-fun var24 () String)
(declare-fun var25 () String)
(declare-fun var26 () String)
(declare-fun var27 () String)
(declare-fun var28 () String)
(declare-fun var29 () String)
(declare-fun var30 () String)
(declare-fun var31 () String)
(declare-fun var32 () String)
(declare-fun var33 () String)
(declare-fun var34 () String)
(declare-fun var35 () String)
(declare-fun var36 () String)
(declare-fun var37 () String)
(declare-fun var38 () String)
(declare-fun var39 () String)
(declare-fun var40 () String)
(declare-fun var41 () String)
(declare-fun var42 () String)
(declare-fun var43 () String)
(declare-fun var44 () String)
(declare-fun var45 () String)
(declare-fun var46 () String)
(declare-fun var47 () String)
(declare-fun var48 () String)
(declare-fun var49 () String)
(declare-fun var50 () String)
(declare-fun var51 () String)
(declare-fun var52 () String)
(declare-fun var53 () String)
(declare-fun var54 () String)
(declare-fun var55 () String)
(declare-fun var56 () String)
(declare-fun var57 () String)
(declare-fun var58 () String)
(declare-fun var59 () String)
(declare-fun var60 () String)
(assert (= var0 (Concat var1 var2)))
(assert (= var2 (Concat var3 var4)))
(assert (= var4 (Concat var5 var6)))
(assert (= var6 (Concat var7 var8)))
(assert (= var8 (Concat var9 var10)))
(assert (= var10 (Concat var11 var12)))
(assert (= var12 (Concat var13 var14)))
(assert (= var14 (Concat var15 var16)))
(assert (= var16 (Concat var17 var18)))
(assert (= var18 (Concat var19 var20)))
(assert (= var20 (Concat var21 var22)))
(assert (= var22 (Concat var23 var24)))
(assert (= var24 (Concat var25 var26)))
(assert (= var26 (Concat var27 var28)))
(assert (= var28 (Concat var29 var30)))
(assert (= var30 (Concat var31 var32)))
(assert (= var32 (Concat var33 var34)))
(assert (= var34 (Concat var35 var36)))
(assert (= var36 (Concat var37 var38)))
(assert (= var38 (Concat var39 var40)))
(assert (= var40 (Concat var41 var42)))
(assert (= var42 (Concat var43 var44)))
(assert (= var44 (Concat var45 var46)))
(assert (= var46 (Concat var47 var48)))
(assert (= var48 (Concat var49 var50)))
(assert (= var50 (Concat var51 var52)))
(assert (= var52 (Concat var53 var54)))
(assert (= var54 (Concat var55 var56)))
(assert (= var56 (Concat var57 var58)))
(assert (= var58 (Concat var59 var60)))
(assert (= var0 "solution"))
(assert (= "*" (CharAt var52 277)))
(assert (= "I" (CharAt var31 920)))
(assert (= "~" (CharAt var12 813)))
(assert (= "'" (CharAt var57 327)))
(assert (= "J" (CharAt var5 252)))
(assert (= "*" (CharAt var33 85)))
(assert (= "B" (CharAt var18 519)))
(assert (= "S" (CharAt var11 523)))
(assert (= "^" (CharAt var56 297)))
(assert (= "y" (CharAt var48 539)))
(assert (= "Y" (CharAt var59 247)))
(assert (= "6" (CharAt var30 209)))
(assert (= "A" (CharAt var30 384)))
(assert (= ")" (CharAt var10 719)))
(assert (= "'" (CharAt var9 68)))
(assert (= "Q" (CharAt var32 299)))
(assert (= ">" (CharAt var33 236)))
(assert (= "y" (CharAt var29 657)))
(assert (= "1" (CharAt var30 708)))
(assert (= ">" (CharAt var49 891)))
(assert (= "F" (CharAt var55 710)))
(assert (= "V" (CharAt var52 795)))
(assert (= "5" (CharAt var38 14)))
(assert (= "&" (CharAt var47 42)))
(assert (= ")" (CharAt var51 454)))
(assert (= "F" (CharAt var3 49)))
(assert (= "q" (CharAt var36 855)))
(assert (= "'" (CharAt var56 405)))
(assert (= "J" (CharAt var58 45)))
(assert (= "O" (CharAt var34 194)))
(assert (= "5" (CharAt var53 767)))
(assert (= "i" (CharAt var14 584)))
(assert (= "d" (CharAt var20 606)))
(assert (= "w" (CharAt var24 277)))
(assert (= "?" (CharAt var1 54)))
(assert (= "," (CharAt var33 501)))
(assert (= "." (CharAt var1 842)))
(assert (= "L" (CharAt var44 283)))
(assert (= "<" (CharAt var29 396)))
(assert (= "u" (CharAt var36 893)))
(assert (= "o" (CharAt var17 786)))
(assert (= "j" (CharAt var52 158)))
(assert (= "P" (CharAt var32 362)))
(assert (= "I" (CharAt var6 124)))
(assert (= "3" (CharAt var32 288)))
(assert (= "." (CharAt var44 92)))
(assert (= "8" (CharAt var43 220)))
(assert (= "v" (CharAt var43 734)))
(assert (= "." (CharAt var33 466)))
(assert (= "g" (CharAt var29 926)))
(assert (= "G" (CharAt var37 36)))
(assert (= "Y" (CharAt var10 969)))
(assert (= "e" (CharAt var1 667)))
(assert (= "v" (CharAt var44 593)))
(assert (= "-" (CharAt var28 631)))
(assert (= "/" (CharAt var8 73)))
(assert (= "q" (CharAt var52 955)))
(assert (= "F" (CharAt var7 319)))
(assert (= "B" (CharAt var29 640)))
(assert (= "=" (CharAt var19 814)))
(assert (= "~" (CharAt var2 732)))
(assert (= "6" (CharAt var0 955)))
(assert (= "v" (CharAt var45 117)))
(assert (= "J" (CharAt var3 674)))
(assert (= "1" (CharAt var46 722)))
(assert (= "2" (CharAt var48 426)))
(assert (= "H" (CharAt var8 199)))
(assert (= "D" (CharAt var2 365)))
(assert (= "X" (CharAt var6 372)))
(assert (= "/" (CharAt var11 816)))
(assert (= "`" (CharAt var6 993)))
(assert (= "H" (CharAt var5 207)))
(assert (= "<" (CharAt var19 402)))
(assert (= "Z" (CharAt var0 347)))
(assert (= "N" (CharAt var42 199)))
(assert (= "h" (CharAt var38 374)))
(assert (= "B" (CharAt var50 773)))
(assert (= "#" (CharAt var26 606)))
(assert (= "Z" (CharAt var8 80)))
(assert (= "a" (CharAt var59 669)))
(assert (= "l" (CharAt var1 732)))
(assert (= ":" (CharAt var15 230)))
(assert (= "7" (CharAt var42 502)))
(assert (= "L" (CharAt var16 486)))
(assert (= "z" (CharAt var57 591)))
(assert (= "L" (CharAt var39 535)))
(assert (= "X" (CharAt var11 417)))
(assert (= "-" (CharAt var16 494)))
(assert (= "l" (CharAt var8 864)))
(assert (= "[" (CharAt var59 999)))
(assert (= "p" (CharAt var32 476)))
(assert (= "t" (CharAt var48 39)))
(assert (= "X" (CharAt var40 816)))
(assert (= "u" (CharAt var57 682)))
(assert (= "B" (CharAt var60 163)))
(assert (= "H" (CharAt var21 163)))
(assert (= "s" (CharAt var60 861)))
(assert (= "G" (CharAt var28 663)))
(assert (= "O" (CharAt var6 171)))
(assert (= "\"" (CharAt var31 965)))
(assert (= "~" (CharAt var43 187)))
(assert (= "_" (CharAt var55 532)))
(assert (= "J" (CharAt var22 756)))
(assert (= ":" (CharAt var2 822)))
(assert (= "S" (CharAt var43 921)))
(assert (= "1" (CharAt var21 523)))
(assert (= "Z" (CharAt var53 442)))
(assert (= "." (CharAt var29 643)))
(assert (= "C" (CharAt var46 387)))
(assert (= "G" (CharAt var52 464)))
(assert (= "2" (CharAt var17 567)))
(assert (= "j" (CharAt var2 708)))
(assert (= "l" (CharAt var13 970)))
(assert (= "K" (CharAt var2 287)))
(assert (= "\"" (CharAt var45 477)))
(assert (= "j" (CharAt var19 299)))
(assert (= "K" (CharAt var12 448)))
(assert (= "<" (CharAt var49 556)))
(assert (= "P" (CharAt var7 472)))
(assert (= "F" (CharAt var57 838)))
(assert (= "j" (CharAt var13 447)))
(assert (= "=" (CharAt var6 85)))
(assert (= "-" (CharAt var16 187)))
(assert (= "^" (CharAt var55 143)))
(assert (= "I" (CharAt var60 22)))
(assert (= "W" (CharAt var51 194)))
(assert (= "7" (CharAt var14 606)))
(assert (= "\"" (CharAt var38 842)))
(assert (= "." (CharAt var20 894)))
(assert (= "B" (CharAt var37 256)))
(assert (= "\\" (CharAt var1 934)))
(assert (= "N" (CharAt var47 350)))
(assert (= "/" (CharAt var8 306)))
(assert (= "~" (CharAt var20 173)))
(assert (= "<" (CharAt var42 306)))
(assert (= "h" (CharAt var42 662)))
(assert (= "|" (CharAt var55 74)))
(assert (= "/" (CharAt var14 973)))
(assert (= "Y" (CharAt var21 93)))
(assert (= "S" (CharAt var60 268)))
(assert (= "A" (CharAt var18 534)))
(assert (= "2" (CharAt var6 890)))
(assert (= "{" (CharAt var45 615)))
(assert (= "{" (CharAt var29 198)))
(assert (= "u" (CharAt var9 433)))
(assert (= "I" (CharAt var50 665)))
(assert (= "_" (CharAt var17 489)))
(assert (= "\\" (CharAt var20 129)))
(assert (= "`" (CharAt var60 483)))
(assert (= "z" (CharAt var23 578)))
(assert (= "i" (CharAt var55 424)))
(assert (= "@" (CharAt var22 908)))
(assert (= "-" (CharAt var0 647)))
(assert (= "b" (CharAt var30 526)))
(assert (= "\\" (CharAt var44 190)))
(assert (= "8" (CharAt var44 646)))
(assert (= "V" (CharAt var39 207)))
(assert (= "x" (CharAt var33 518)))
(assert (= "*" (CharAt var47 396)))
(assert (= "t" (CharAt var31 508)))
(assert (= "g" (CharAt var43 126)))
(assert (= "d" (CharAt var29 196)))
(assert (= "E" (CharAt var50 128)))
(assert (= "&" (CharAt var16 947)))
(assert (= "Y" (CharAt var20 273)))
(assert (= "&" (CharAt var25 589)))
(assert (= "r" (CharAt var14 808)))
(assert (= "`" (CharAt var9 824)))
(assert (= "9" (CharAt var58 176)))
(assert (= "3" (CharAt var44 316)))
(assert (= ":" (CharAt var60 102)))
(assert (= "8" (CharAt var22 90)))
(assert (= "-" (CharAt var15 333)))
(assert (= "\"" (CharAt var37 423)))
(assert (= "7" (CharAt var59 19)))
(assert (= "5" (CharAt var57 734)))
(assert (= "<" (CharAt var20 845)))
(assert (= "o" (CharAt var8 567)))
(assert (= "%" (CharAt var42 820)))
(assert (= "E" (CharAt var11 822)))
(assert (= "%" (CharAt var55 3)))
(assert (= "3" (CharAt var13 570)))
(assert (= "\"" (CharAt var2 717)))
(assert (= "o" (CharAt var6 587)))
(assert (= "U" (CharAt var29 499)))
(assert (= "Y" (CharAt var11 735)))
(assert (= "T" (CharAt var1 262)))
(assert (= "M" (CharAt var35 966)))
(assert (= "j" (CharAt var26 619)))
(assert (= "0" (CharAt var19 955)))
(assert (= "!" (CharAt var38 456)))
(assert (= "Q" (CharAt var41 729)))
(assert (= "u" (CharAt var3 279)))
(assert (= "H" (CharAt var19 788)))
(assert (= "$" (CharAt var28 331)))
(assert (= "F" (CharAt var11 338)))
(assert (= "#" (CharAt var24 578)))
(assert (= "}" (CharAt var26 353)))
(assert (= "." (CharAt var4 735)))
(assert (= "&" (CharAt var9 398)))
(assert (= "_" (CharAt var5 300)))
(assert (= "D" (CharAt var32 255)))
(assert (= "0" (CharAt var24 436)))
(assert (= "~" (CharAt var38 948)))
(assert (= "`" (CharAt var24 474)))
(assert (= "Y" (CharAt var5 37)))
(assert (= "v" (CharAt var19 238)))
(assert (= ")" (CharAt var27 932)))
(assert (= "v" (CharAt var54 802)))
(assert (= "o" (CharAt var16 501)))
(assert (= "k" (CharAt var56 85)))
(assert (= "*" (CharAt var32 148)))
(assert (= "`" (CharAt var19 186)))
(assert (= ";" (CharAt var40 293)))
(assert (= "M" (CharAt var59 313)))
(assert (= "Y" (CharAt var28 56)))
(assert (= ">" (CharAt var0 333)))
(assert (= "2" (CharAt var31 980)))
(assert (= "B" (CharAt var2 915)))
(assert (= "~" (CharAt var4 738)))
(assert (= "T" (CharAt var1 100)))
(assert (= "Z" (CharAt var33 228)))
(assert (= "[" (CharAt var11 74)))
(assert (= "]" (CharAt var50 875)))
(assert (= "e" (CharAt var56 663)))
(assert (= "I" (CharAt var60 446)))
(assert (= "&" (CharAt var30 579)))
(assert (= "l" (CharAt var13 754)))
(assert (= "B" (CharAt var9 389)))
(assert (= "8" (CharAt var17 276)))
(assert (= "(" (CharAt var36 835)))
(assert (= "4" (CharAt var58 309)))
(assert (= "u" (CharAt var34 549)))
(assert (= "V" (CharAt var51 736)))
(assert (= "d" (CharAt var46 823)))
(assert (= "\"" (CharAt var32 733)))
(assert (= "~" (CharAt var14 390)))
(assert (= "N" (CharAt var9 84)))
(assert (= "*" (CharAt var46 403)))
(assert (= "f" (CharAt var60 501)))
(assert (= "," (CharAt var53 141)))
(assert (= "8" (CharAt var25 839)))
(assert (= "p" (CharAt var38 477)))
(assert (= "v" (CharAt var38 449)))
(assert (= "4" (CharAt var20 64)))
(assert (= "k" (CharAt var34 636)))
(assert (= "x" (CharAt var42 528)))
(assert (= "3" (CharAt var25 493)))
(assert (= ")" (CharAt var15 968)))
(assert (= "P" (CharAt var22 677)))
(assert (= "b" (CharAt var15 495)))
(assert (= "G" (CharAt var11 571)))
(assert (= "q" (CharAt var0 549)))
(assert (= "h" (CharAt var29 459)))
(assert (= "-" (CharAt var34 900)))
(assert (= "0" (CharAt var34 521)))
(assert (= "y" (CharAt var10 587)))
(assert (= "J" (CharAt var45 271)))
(assert (= "H" (CharAt var29 485)))
(assert (= "c" (CharAt var10 358)))
(assert (= "," (CharAt var30 529)))
(assert (= "I" (CharAt var18 826)))
(assert (= "'" (CharAt var0 79)))
(assert (= "(" (CharAt var37 369)))
(assert (= "p" (CharAt var19 279)))
(assert (= "M" (CharAt var55 344)))
(assert (= "S" (CharAt var50 768)))
(assert (= "M" (CharAt var2 529)))
(assert (= "r" (CharAt var22 24)))
(assert (= "'" (CharAt var44 382)))
(assert (= "q" (CharAt var29 366)))
(assert (= "E" (CharAt var35 413)))
(assert (= "I" (CharAt var59 831)))
(assert (= "4" (CharAt var7 229)))
(assert (= "n" (CharAt var47 222)))
(assert (= "-" (CharAt var46 2)))
(assert (= "V" (CharAt var56 344)))
(assert (= "=" (CharAt var44 269)))
(assert (= "h" (CharAt var15 568)))
(assert (= "Z" (CharAt var45 809)))
(assert (= "W" (CharAt var13 928)))
(assert (= "y" (CharAt var9 239)))
(assert (= "4" (CharAt var24 638)))
(assert (= "b" (CharAt var8 349)))
(assert (= "i" (CharAt var23 168)))
(assert (= "3" (CharAt var54 449)))
(assert (= "R" (CharAt var0 239)))
(assert (= "S" (CharAt var3 907)))
(assert (= "b" (CharAt var18 7)))
(assert (= "4" (CharAt var51 383)))
(assert (= "_" (CharAt var25 299)))
(assert (= "j" (CharAt var58 352)))
(assert (= "_" (CharAt var44 386)))
(assert (= "p" (CharAt var48 646)))
(assert (= "e" (CharAt var19 57)))
(assert (= "T" (CharAt var3 85)))
(assert (= "g" (CharAt var42 96)))
(assert (= "T" (CharAt var55 79)))
(assert (= "M" (CharAt var8 224)))
(assert (= "B" (CharAt var13 121)))
(assert (= "B" (CharAt var53 315)))
(assert (= "F" (CharAt var10 647)))
(assert (= "r" (CharAt var46 19)))
(assert (= "8" (CharAt var17 726)))
(assert (= "e" (CharAt var20 477)))
(assert (= "U" (CharAt var54 301)))
(assert (= "6" (CharAt var36 914)))
(assert (= "t" (CharAt var5 761)))
(assert (= "k" (CharAt var18 435)))
(assert (= "u" (CharAt var12 495)))
(assert (= "[" (CharAt var39 870)))
(assert (= ")" (CharAt var19 64)))
(assert (= "&" (CharAt var7 552)))
(assert (= "<" (CharAt var57 812)))
(assert (= "i" (CharAt var1 878)))
(assert (= "`" (CharAt var41 108)))
(assert (= "p" (CharAt var31 233)))
(assert (= "U" (CharAt var46 603)))
(assert (= "Q" (CharAt var9 2)))
(assert (= "6" (CharAt var16 147)))
(assert (= ">" (CharAt var43 561)))
(assert (= "<" (CharAt var14 217)))
(assert (= "J" (CharAt var39 863)))
(assert (= "a" (CharAt var57 395)))
(assert (= "(" (CharAt var18 824)))
(assert (= "t" (CharAt var42 379)))
(assert (= "6" (CharAt var18 619)))
(assert (= "a" (CharAt var35 700)))
(assert (= "M" (CharAt var29 445)))
(assert (= "*" (CharAt var3 847)))
(assert (= "@" (CharAt var33 923)))
(assert (= "s" (CharAt var16 869)))
(assert (= ">" (CharAt var31 37)))
(assert (= "$" (CharAt var28 860)))
(assert (= ">" (CharAt var30 360)))
(assert (= "-" (CharAt var55 465)))
(assert (= "(" (CharAt var60 667)))
(assert (= "a" (CharAt var17 208)))
(assert (= "K" (CharAt var25 717)))
(assert (= "E" (CharAt var44 573)))
(assert (= "T" (CharAt var0 853)))
(assert (= "@" (CharAt var56 676)))
(assert (= "]" (CharAt var36 182)))
(assert (= "]" (CharAt var13 539)))
(assert (= "v" (CharAt var52 781)))
(assert (= "m" (CharAt var20 699)))
(assert (= "U" (CharAt var28 29)))
(assert (= "g" (CharAt var40 666)))
(assert (= "O" (CharAt var23 252)))
(assert (= "r" (CharAt var46 729)))
(assert (= "R" (CharAt var33 417)))
(assert (= "X" (CharAt var46 478)))
(assert (= "1" (CharAt var2 296)))
(assert (= "5" (CharAt var35 124)))
(assert (= ":" (CharAt var51 231)))
(assert (= "I" (CharAt var10 362)))
(assert (= ":" (CharAt var41 634)))
(assert (= "`" (CharAt var53 998)))
(assert (= "D" (CharAt var18 499)))
(assert (= "\"" (CharAt var14 432)))
(assert (= ":" (CharAt var31 526)))
(assert (= "j" (CharAt var15 672)))
(assert (= "+" (CharAt var58 247)))
(assert (= "+" (CharAt var19 623)))
(assert (= "T" (CharAt var13 433)))
(assert (= "[" (CharAt var59 817)))
(assert (= "D" (CharAt var40 86)))
(assert (= "1" (CharAt var36 824)))
(assert (= "T" (CharAt var50 915)))
(assert (= "=" (CharAt var59 906)))
(assert (= "{" (CharAt var24 763)))
(assert (= "o" (CharAt var13 41)))
(assert (= ">" (CharAt var39 511)))
(assert (= "A" (CharAt var10 154)))
(assert (= "a" (CharAt var40 726)))
(assert (= "#" (CharAt var19 525)))
(assert (= "J" (CharAt var34 421)))
(assert (= "C" (CharAt var9 520)))
(assert (= ")" (CharAt var36 375)))
(assert (= "U" (CharAt var11 540)))
(assert (= "V" (CharAt var24 864)))
(assert (= "$" (CharAt var20 920)))
(assert (= "S" (CharAt var49 569)))
(assert (= "n" (CharAt var7 176)))
(assert (= "x" (CharAt var28 655)))
(assert (= "|" (CharAt var25 381)))
(assert (= "6" (CharAt var36 124)))
(assert (= "{" (CharAt var5 249)))
(assert (= "~" (CharAt var58 413)))
(assert (= "|" (CharAt var37 775)))
(assert (= "c" (CharAt var27 128)))
(assert (= "'" (CharAt var32 550)))
(assert (= "G" (CharAt var28 464)))
(assert (= "D" (CharAt var60 836)))
(assert (= "[" (CharAt var11 853)))
(assert (= "k" (CharAt var46 174)))
(assert (= "]" (CharAt var56 295)))
(assert (= "Q" (CharAt var15 589)))
(assert (= "n" (CharAt var47 531)))
(assert (= "Z" (CharAt var54 604)))
(assert (= "F" (CharAt var20 401)))
(assert (= "." (CharAt var37 952)))
(assert (= "^" (CharAt var19 73)))
(assert (= "*" (CharAt var36 665)))
(assert (= "u" (CharAt var19 636)))
(assert (= "}" (CharAt var60 682)))
(assert (= "Z" (CharAt var9 70)))
(assert (= "'" (CharAt var54 649)))
(assert (= "F" (CharAt var41 451)))
(assert (= "^" (CharAt var14 424)))
(assert (= "U" (CharAt var35 792)))
(assert (= "D" (CharAt var51 42)))
(assert (= "9" (CharAt var16 523)))
(assert (= "m" (CharAt var42 794)))
(assert (= "_" (CharAt var50 79)))
(assert (= "p" (CharAt var1 640)))
(assert (= "J" (CharAt var10 530)))
(assert (= "4" (CharAt var58 694)))
(assert (= "+" (CharAt var48 728)))
(assert (= "K" (CharAt var34 835)))
(assert (= "%" (CharAt var54 582)))
(assert (= "#" (CharAt var39 414)))
(assert (= "0" (CharAt var34 737)))
(assert (= "t" (CharAt var34 534)))
(assert (= "L" (CharAt var7 406)))
(assert (= "+" (CharAt var16 103)))
(assert (= "#" (CharAt var14 741)))
(assert (= "e" (CharAt var43 189)))
(assert (= "M" (CharAt var56 962)))
(assert (= "\\" (CharAt var33 101)))
(assert (= "\\" (CharAt var42 238)))
(assert (= "5" (CharAt var0 183)))
(assert (= "p" (CharAt var58 901)))
(assert (= "7" (CharAt var59 89)))
(assert (= "!" (CharAt var19 23)))
(assert (= "5" (CharAt var38 216)))
(assert (= "G" (CharAt var54 379)))
(assert (= "p" (CharAt var46 979)))
(assert (= "n" (CharAt var8 96)))
(assert (= "v" (CharAt var59 837)))
(assert (= "=" (CharAt var33 566)))
(assert (= "_" (CharAt var56 95)))
(assert (= "\"" (CharAt var22 790)))
(assert (= "W" (CharAt var14 715)))
(assert (= "/" (CharAt var35 736)))
(assert (= "O" (CharAt var6 347)))
(assert (= "2" (CharAt var22 913)))
(assert (= "k" (CharAt var0 49)))
(assert (= "q" (CharAt var44 991)))
(assert (= "s" (CharAt var3 68)))
(assert (= "Z" (CharAt var38 171)))
(assert (= "9" (CharAt var37 88)))
(assert (= "<" (CharAt var54 615)))
(assert (= "@" (CharAt var16 442)))
(assert (= "F" (CharAt var23 35)))
(assert (= "\\" (CharAt var24 60)))
(assert (= "$" (CharAt var24 522)))
(assert (= "P" (CharAt var53 305)))
(assert (= "K" (CharAt var58 332)))
(assert (= "P" (CharAt var44 183)))
(assert (= "1" (CharAt var2 779)))
(assert (= "=" (CharAt var30 328)))
(assert (= "Q" (CharAt var25 608)))
(assert (= "*" (CharAt var18 102)))
(assert (= "l" (CharAt var41 262)))
(assert (= "0" (CharAt var4 461)))
(assert (= "W" (CharAt var19 490)))
(assert (= "s" (CharAt var12 961)))
(assert (= "d" (CharAt var19 7)))
(assert (= "&" (CharAt var3 578)))
(assert (= "y" (CharAt var42 481)))
(assert (= "#" (CharAt var18 676)))
(assert (= "c" (CharAt var3 683)))
(assert (= "&" (CharAt var36 15)))
(assert (= "L" (CharAt var24 67)))
(assert (= "S" (CharAt var36 277)))
(assert (= "i" (CharAt var19 137)))
(assert (= "p" (CharAt var22 283)))
(assert (= "2" (CharAt var54 921)))
(assert (= "}" (CharAt var58 496)))
(assert (= "R" (CharAt var6 992)))
(assert (= "Q" (CharAt var5 211)))
(assert (= "u" (CharAt var43 624)))
(assert (= "\\" (CharAt var4 269)))
(assert (= "U" (CharAt var21 410)))
(assert (= "P" (CharAt var3 177)))
(assert (= "*" (CharAt var47 855)))
(assert (= "S" (CharAt var37 75)))
(assert (= "z" (CharAt var10 768)))
(assert (= "p" (CharAt var55 105)))
(assert (= "0" (CharAt var11 486)))
(assert (= "v" (CharAt var3 46)))
(assert (= "%" (CharAt var19 475)))
(assert (= "z" (CharAt var15 217)))
(assert (= "o" (CharAt var25 108)))
(assert (= ":" (CharAt var60 39)))
(assert (= "%" (CharAt var12 643)))
(assert (= "F" (CharAt var0 756)))
(assert (= "`" (CharAt var47 986)))
(assert (= "]" (CharAt var40 842)))
(assert (= "w" (CharAt var42 623)))
(assert (= "?" (CharAt var17 3)))
(assert (= "y" (CharAt var43 418)))
(assert (= "z" (CharAt var29 220)))
(assert (= "f" (CharAt var7 68)))
(assert (= "b" (CharAt var34 860)))
(assert (= "\"" (CharAt var6 24)))
(assert (= "`" (CharAt var31 743)))
(assert (= "E" (CharAt var20 503)))
(assert (= "\\" (CharAt var59 739)))
(assert (= "+" (CharAt var36 240)))
(assert (= "Y" (CharAt var6 109)))
(assert (= "u" (CharAt var8 407)))
(assert (= "J" (CharAt var44 638)))
(assert (= "d" (CharAt var26 47)))
(assert (= "/" (CharAt var45 417)))
(assert (= "^" (CharAt var13 953)))
(assert (= "]" (CharAt var28 823)))
(assert (= "3" (CharAt var30 39)))
(assert (= "*" (CharAt var21 364)))
(assert (= "l" (CharAt var51 852)))
(assert (= ")" (CharAt var37 382)))
(assert (= "S" (CharAt var20 905)))
(assert (= "1" (CharAt var56 43)))
(assert (= "{" (CharAt var50 740)))
(assert (= "D" (CharAt var9 836)))
(assert (= "Q" (CharAt var32 875)))
(assert (= "|" (CharAt var57 412)))
(assert (= "|" (CharAt var18 992)))
(assert (= "Z" (CharAt var47 626)))
(assert (= "L" (CharAt var12 855)))
(assert (= "*" (CharAt var35 508)))
(assert (= "-" (CharAt var32 126)))
(assert (= "1" (CharAt var58 169)))
(assert (= "p" (CharAt var47 871)))
(assert (= "'" (CharAt var36 152)))
(assert (= "|" (CharAt var42 863)))
(assert (= ":" (CharAt var40 104)))
(assert (= "_" (CharAt var8 496)))
(assert (= "U" (CharAt var49 642)))
(assert (= "6" (CharAt var10 549)))
(assert (= "k" (CharAt var43 810)))
(assert (= "&" (CharAt var29 827)))
(assert (= "B" (CharAt var57 384)))
(assert (= "H" (CharAt var49 795)))
(assert (= "B" (CharAt var53 346)))
(assert (= "*" (CharAt var25 200)))
(assert (= "F" (CharAt var38 550)))
(assert (= "o" (CharAt var23 54)))
(assert (= "F" (CharAt var11 391)))
(assert (= "f" (CharAt var52 344)))
(assert (= "'" (CharAt var57 603)))
(assert (= "." (CharAt var39 317)))
(assert (= "6" (CharAt var8 487)))
(assert (= "/" (CharAt var39 676)))
(assert (= "]" (CharAt var58 58)))
(assert (= "`" (CharAt var32 553)))
(assert (= "6" (CharAt var59 962)))
(assert (= "3" (CharAt var30 837)))
(assert (= "d" (CharAt var35 8)))
(assert (= "7" (CharAt var7 224)))
(assert (= "&" (CharAt var29 865)))
(assert (= "[" (CharAt var54 598)))
(assert (= "^" (CharAt var5 228)))
(assert (= "8" (CharAt var55 175)))
(assert (= "9" (CharAt var60 971)))
(assert (= "K" (CharAt var51 570)))
(assert (= "[" (CharAt var12 201)))
(assert (= "H" (CharAt var38 901)))
(assert (= ";" (CharAt var3 373)))
(assert (= ">" (CharAt var53 472)))
(assert (= "q" (CharAt var26 107)))
(assert (= "(" (CharAt var9 483)))
(assert (= "3" (CharAt var14 922)))
(assert (= "I" (CharAt var33 353)))
(assert (= "j" (CharAt var28 611)))
(assert (= "d" (CharAt var37 426)))
(assert (= "W" (CharAt var2 715)))
(assert (= "x" (CharAt var23 766)))
(assert (= "P" (CharAt var3 322)))
(assert (= "i" (CharAt var20 865)))
(assert (= "M" (CharAt var31 629)))
(assert (= "#" (CharAt var4 925)))
(assert (= "$" (CharAt var32 9)))
(assert (= "Z" (CharAt var35 452)))
(assert (= "w" (CharAt var11 601)))
(assert (= "s" (CharAt var51 38)))
(assert (= "#" (CharAt var12 657)))
(assert (= "C" (CharAt var36 193)))
(assert (= "Q" (CharAt var2 285)))
(assert (= "J" (CharAt var52 212)))
(assert (= "6" (CharAt var59 346)))
(assert (= "H" (CharAt var31 191)))
(assert (= "o" (CharAt var42 805)))
(assert (= "(" (CharAt var59 745)))
(assert (= "R" (CharAt var35 242)))
(assert (= "Q" (CharAt var6 931)))
(assert (= "b" (CharAt var42 114)))
(assert (= "F" (CharAt var40 250)))
(assert (= "@" (CharAt var21 605)))
(assert (= "i" (CharAt var7 661)))
(assert (= "F" (CharAt var57 54)))
(assert (= "Y" (CharAt var39 879)))
(assert (= "r" (CharAt var37 496)))
(assert (= "\"" (CharAt var35 173)))
(assert (= "R" (CharAt var11 341)))
(assert (= ")" (CharAt var2 479)))
(assert (= "C" (CharAt var21 616)))
(assert (= "-" (CharAt var47 282)))
(assert (= "N" (CharAt var20 516)))
(assert (= "g" (CharAt var50 830)))
(assert (= "V" (CharAt var39 70)))
(assert (= "6" (CharAt var10 30)))
(assert (= ">" (CharAt var35 277)))
(assert (= "$" (CharAt var30 832)))
(assert (= ":" (CharAt var27 144)))
(assert (= "%" (CharAt var25 601)))
(assert (= ")" (CharAt var14 690)))
(assert (= "=" (CharAt var47 120)))
(assert (= "y" (CharAt var27 50)))
(assert (= ":" (CharAt var42 686)))
(assert (= "g" (CharAt var37 655)))
(assert (= "N" (CharAt var46 135)))
(assert (= "[" (CharAt var51 238)))
(assert (= "#" (CharAt var11 851)))
(assert (= "W" (CharAt var24 636)))
(assert (= "$" (CharAt var1 392)))
(assert (= "Y" (CharAt var26 509)))
(assert (= "X" (CharAt var21 550)))
(assert (= "G" (CharAt var54 780)))
(assert (= "~" (CharAt var19 470)))
(assert (= "E" (CharAt var27 14)))
(assert (= "y" (CharAt var33 931)))
(assert (= "i" (CharAt var49 680)))
(assert (= "H" (CharAt var20 799)))
(assert (= "[" (CharAt var35 385)))
(assert (= "T" (CharAt var12 528)))
(assert (= "#" (CharAt var42 369)))
(assert (= "z" (CharAt var30 860)))
(assert (= "^" (CharAt var25 392)))
(assert (= "I" (CharAt var48 49)))
(assert (= "z" (CharAt var5 783)))
(assert (= "U" (CharAt var15 955)))
(assert (= "U" (CharAt var43 304)))
(assert (= "`" (CharAt var1 572)))
(assert (= "j" (CharAt var49 935)))
(assert (= "y" (CharAt var32 394)))
(assert (= "P" (CharAt var60 797)))
(assert (= "L" (CharAt var46 570)))
(assert (= "{" (CharAt var33 848)))
(assert (= "&" (CharAt var28 600)))
(assert (= "Z" (CharAt var2 303)))
(assert (= "`" (CharAt var37 440)))
(assert (= "*" (CharAt var21 90)))
(assert (= "\"" (CharAt var11 293)))
(assert (= "3" (CharAt var34 830)))
(assert (= "M" (CharAt var49 881)))
(assert (= "n" (CharAt var36 82)))
(assert (= "P" (CharAt var34 132)))
(assert (= "<" (CharAt var57 752)))
(assert (= "|" (CharAt var21 593)))
(assert (= "y" (CharAt var31 772)))
(assert (= "~" (CharAt var16 578)))
(assert (= "%" (CharAt var53 396)))
(assert (= "3" (CharAt var36 881)))
(assert (= "3" (CharAt var56 590)))
(assert (= "h" (CharAt var51 368)))
(assert (= "1" (CharAt var54 987)))
(assert (= "?" (CharAt var47 340)))
(assert (= "W" (CharAt var17 2)))
(assert (= "?" (CharAt var51 980)))
(assert (= "u" (CharAt var16 564)))
(assert (= "o" (CharAt var52 898)))
(assert (= "6" (CharAt var56 339)))
(assert (= "C" (CharAt var16 529)))
(assert (= "k" (CharAt var42 917)))
(assert (= "j" (CharAt var45 384)))
(assert (= "d" (CharAt var9 85)))
(assert (= "R" (CharAt var5 398)))
(assert (= "F" (CharAt var7 475)))
(assert (= "<" (CharAt var27 715)))
(assert (= "!" (CharAt var36 417)))
(assert (= "z" (CharAt var59 257)))
(assert (= "]" (CharAt var52 652)))
(assert (= "+" (CharAt var38 645)))
(assert (= "%" (CharAt var49 280)))
(assert (= "$" (CharAt var43 671)))
(assert (= "j" (CharAt var29 999)))
(assert (= "&" (CharAt var29 37)))
(assert (= "t" (CharAt var16 270)))
(assert (= "C" (CharAt var0 739)))
(assert (= "^" (CharAt var5 167)))
(assert (= "(" (CharAt var49 132)))
(assert (= "`" (CharAt var3 473)))
(assert (= "$" (CharAt var27 403)))
(assert (= "b" (CharAt var20 35)))
(assert (= "~" (CharAt var44 874)))
(assert (= "S" (CharAt var50 721)))
(assert (= "'" (CharAt var8 961)))
(assert (= "a" (CharAt var26 927)))
(assert (= "5" (CharAt var15 516)))
(assert (= "M" (CharAt var33 151)))
(assert (= "U" (CharAt var11 860)))
(assert (= "}" (CharAt var24 590)))
(assert (= "A" (CharAt var15 316)))
(assert (= ")" (CharAt var28 435)))
(assert (= "[" (CharAt var58 608)))
(assert (= "B" (CharAt var23 1)))
(assert (= "Y" (CharAt var40 705)))
(assert (= "d" (CharAt var52 443)))
(assert (= "R" (CharAt var6 578)))
(assert (= "C" (CharAt var53 423)))
(assert (= "J" (CharAt var11 139)))
(assert (= "d" (CharAt var7 248)))
(assert (= "\"" (CharAt var21 827)))
(assert (= "=" (CharAt var41 731)))
(assert (= ")" (CharAt var37 33)))
(assert (= "]" (CharAt var51 18)))
(assert (= "h" (CharAt var36 313)))
(assert (= "X" (CharAt var6 79)))
(assert (= ":" (CharAt var9 447)))
(assert (= "D" (CharAt var5 22)))
(assert (= "[" (CharAt var50 598)))
(assert (= "1" (CharAt var50 352)))
(assert (= "a" (CharAt var53 488)))
(assert (= "_" (CharAt var39 323)))
(assert (= "$" (CharAt var4 69)))
(assert (= "3" (CharAt var2 172)))
(assert (= "s" (CharAt var50 275)))
(assert (= ":" (CharAt var29 101)))
(assert (= "W" (CharAt var1 365)))
(assert (= "1" (CharAt var39 745)))
(assert (= "e" (CharAt var2 455)))
(assert (= "7" (CharAt var46 861)))
(assert (= "P" (CharAt var22 491)))
(assert (= "W" (CharAt var22 797)))
(assert (= "w" (CharAt var49 727)))
(assert (= "9" (CharAt var55 866)))
(assert (= "z" (CharAt var14 610)))
(assert (= "*" (CharAt var57 728)))
(assert (= "d" (CharAt var9 692)))
(assert (= "G" (CharAt var51 629)))
(assert (= "o" (CharAt var45 724)))
(assert (= "U" (CharAt var27 370)))
(assert (= "i" (CharAt var3 621)))
(assert (= "y" (CharAt var32 706)))
(assert (= "S" (CharAt var36 946)))
(assert (= "R" (CharAt var35 315)))
(assert (= "R" (CharAt var29 931)))
(assert (= "0" (CharAt var52 236)))
(assert (= "\"" (CharAt var29 546)))
(assert (= "p" (CharAt var14 373)))
(assert (= "c" (CharAt var60 67)))
(assert (= "h" (CharAt var49 515)))
(assert (= "v" (CharAt var34 664)))
(assert (= "C" (CharAt var24 614)))
(assert (= "\\" (CharAt var14 410)))
(assert (= "[" (CharAt var49 110)))
(assert (= "]" (CharAt var32 984)))
(assert (= "'" (CharAt var26 37)))
(assert (= "!" (CharAt var12 692)))
(assert (= "]" (CharAt var22 31)))
(assert (= "L" (CharAt var14 772)))
(assert (= "*" (CharAt var41 661)))
(assert (= "D" (CharAt var35 575)))
(assert (= "s" (CharAt var26 416)))
(assert (= "+" (CharAt var6 908)))
(assert (= "t" (CharAt var53 702)))
(assert (= "5" (CharAt var32 240)))
(assert (= "n" (CharAt var53 158)))
(assert (= "2" (CharAt var33 734)))
(assert (= "&" (CharAt var6 385)))
(assert (= "r" (CharAt var23 403)))
(assert (= "t" (CharAt var42 80)))
(assert (= "R" (CharAt var25 332)))
(assert (= "3" (CharAt var39 899)))
(assert (= "3" (CharAt var14 266)))
(assert (= "0" (CharAt var23 756)))
(assert (= "f" (CharAt var13 435)))
(assert (= "G" (CharAt var49 90)))
(assert (= "o" (CharAt var49 212)))
(assert (= "*" (CharAt var46 817)))
(assert (= "K" (CharAt var34 351)))
(assert (= "Y" (CharAt var9 190)))
(assert (= "/" (CharAt var59 43)))
(assert (= "g" (CharAt var47 779)))
(assert (= "C" (CharAt var51 786)))
(assert (= "%" (CharAt var21 313)))
(assert (= "Z" (CharAt var49 952)))
(assert (= "^" (CharAt var47 89)))
(assert (= "4" (CharAt var28 552)))
(assert (= "u" (CharAt var11 131)))
(assert (= ">" (CharAt var58 601)))
(assert (= "^" (CharAt var29 362)))
(assert (= "[" (CharAt var1 961)))
(assert (= "R" (CharAt var6 673)))
(assert (= "!" (CharAt var30 654)))
(assert (= "_" (CharAt var21 789)))
(assert (= "f" (CharAt var22 582)))
(assert (= "`" (CharAt var13 789)))
(assert (= "|" (CharAt var10 109)))
(check-sat)
(get-model)